NAME : morphed22-5-22
COMMENT : Generated using the function morphInstances from the R-package netgen (Bossek,2015) - Number of clusters: 5 Alpha: 0.5
TYPE : TSP
DIMENSION : 22
EDGE_WEIGHT_TYPE : EUC_2D
NODE_COORD_SECTION
1 22.8201155682 65.1868119352
2 29.0631413209 80.4680518257
3 82.2026353988 61.4298464831
4 39.1498530922 92.0870248746
5 83.4337421456 47.1640620838
6 47.914449222 95.8786567516
7 69.6784653015 19.0464449273
8 76.8710546485 21.7922357808
9 43.0011629557 18.2684660845
10 43.2470166465 24.1067506344
11 79.7363928141 69.4812731127
12 70.3225923619 12.3866586147
13 32.2635290025 96.8632774394
14 87.6218564789 10.7580284166
15 31.0243585999 84.140348071
16 7.4994665089 37.1010062048
17 41.268324689 10.2163884285
18 13.4475944291 62.2542584723
19 67.6408701913 33.4704175872
20 28.7545357607 58.5755920838
21 18.0791263307 61.4311862604
22 37.1154811355 8.5260456396
EOF
